
   AbsCon 1.41 (January, 2014) - defaultConfiguration

   
   instance
        framework=CSP  name=Isomorphism-/cluster/gpg/ciaran/sip-benchmarks/benchmarks/meshes-CVIU11/patterns/pattern2-/cluster/gpg/ciaran/sip-benchmarks/benchmarks/meshes-CVIU11/targets/target11
        parameters=/cluster/gpg/ciaran/sip-benchmarks/benchmarks/meshes-CVIU11/patterns/pattern2,/cluster/gpg/ciaran/sip-benchmarks/benchmarks/meshes-CVIU11/targets/target11
      

   loading variables...
        nbVariables=129  nbDomainTypes=1  nbTotalValues=68886  domainSizes=(534:129)
          =>  wckTime=0.203  cpuTime=0.332  mem=7M825

   loading objectives...

   loading constraints...
        nbConstraints=382  nbSpecificConstraints=1  nbExtensionStructures=(1,shared:380)  nbConflictsStructures=(1,shared:380,unbuilt:1)
        degrees=(5:2)(6:13)(7:112)(9:1)(10:1)  arities=(2:381)(129:1)  types=(AllDifferent:1)(ConstraintHardExtensionV-Bits:381)
          =>  wckTime=0.395  cpuTime=0.518  mem=16M579

   INFO : <!-- Start saving the XML representation -->

   INFO : <!-- Stop saving the XML representation of target11.xml -->

   Solver SolverBacktrack being built... 
          =>  wckTime=0.803  cpuTime=0.855  mem=27M396

   
   search
        run=0  nbConstraintChecks=0  depth=(min:0,max:0,avg:1)  nbEffectivePropagations=3717  nbRevisions=24120  nbUselessRevisions=20524
        nbAssignments=518  nbFailedAssignments=518  nbBacktracks=1  nbVisitedNodes=1037  nbRestartNogoods=0
          =>  wckTime=8.064  cpuTime=8.808  mem=127M227

   
   global
        nbConstraintChecks=0  nbEffectivePropagations=3717  nbRevisions=24120  nbUselessRevisions=20524  nbRestartNogoods=0  solvingWckTime=8.064
        expiredTime=no  totalExploration=yes  nbFoundSolutions=0  Stop=FULL_EXPLORATION
          =>  wckTime=8.868  cpuTime=8.809  mem=127M227

s UNSATISFIABLE
d NODES 518

   totalWckTime=8.763  totalCpuTime=8.809
